unsat
(:max-memory          18.07
 :memory              17.93
 :nlsat-conflicts     4
 :nlsat-learned-added 3
 :nlsat-propagations  12
 :nlsat-stages        5
 :num-allocs          5636
 :rlimit-count        1908
 :time                0.00
 :total-time          0.01)
